O66_Co48                                
   1.00000000000000     
     8.1549999999999994    0.0000000000000000    0.0000000000000000
     0.0000000000000000    8.1549999999999994    0.0000000000000000
     0.0000000000000000    0.0000000000000000   31.3099999999999987
   O    Co
    66    48
Selective dynamics
Direct
  0.3824446923780190  0.1377675004171591  0.5405565831462026   T   T   T
  0.1360665105836046  0.3804823281524053  0.5406028248401764   T   T   T
  0.3880380134886536  0.3868828939301068  0.1009067390610028   F   F   F
  0.3897878602084575  0.3897878602084575  0.3619840306611337   F   F   F
  0.3897878602084575  0.8897878602084575  0.2317540721814098   F   F   F
  0.3961458988350241  0.8966590817891953  0.4861392284464011   T   T   T
  0.8897878602084575  0.3897878602084575  0.2317543915681881   F   F   F
  0.8965603675746275  0.3959430131529419  0.4861399368962830   T   T   T
  0.8837424892703893  0.8912078479460419  0.1014589587991068   F   F   F
  0.8897878602084575  0.8897890864500297  0.3619840306611337   F   F   F
  0.6102121397915425  0.1102121397915425  0.2317540721814098   F   F   F
  0.6085505986898386  0.1021260437612095  0.4850135700378265   T   T   T
  0.6110275904353131  0.6088853464132455  0.1011357393803891   F   F   F
  0.6102121397915425  0.6102121397915425  0.3619837112743554   F   F   F
  0.1135217657878584  0.1257020232985866  0.1012551900351326   F   F   F
  0.1102109135499703  0.1102121397915425  0.3619840306611337   F   F   F
  0.1102121397915425  0.8897878602084575  0.1589358032577479   F   F   F
  0.1095117307267237  0.8908281093554634  0.4190154618320360   T   T   T
  0.1092090741876177  0.3926302881667709  0.0314624720536543   F   F   F
  0.1102109135499703  0.3897878602084575  0.2891657617374648   F   F   F
  0.8914653586756600  0.6020306560392399  0.0304995209198324   F   F   F
  0.8897878602084575  0.6102121397915425  0.2891657617374648   F   F   F
  0.3897866339668923  0.6102121397915425  0.1589358032577479   F   F   F
  0.3894797499005677  0.6098085400563975  0.4191852268665381   T   T   T
  0.3874457388105483  0.1337547516860838  0.0320533375918259   F   F   F
  0.3897878602084575  0.1102121397915425  0.2891657617374648   F   F   F
  0.1455131820968703  0.6282771305947250  0.0991248802299580   F   F   F
  0.1397866339668923  0.6397878602084575  0.3542807409773232   F   F   F
  0.1397878602084575  0.1397878602084575  0.2240507824976063   F   F   F
  0.1455290972348646  0.1450961701083041  0.4833226658960326   T   T   T
  0.8602121397915425  0.8602121397915425  0.2240507824976063   F   F   F
  0.8520122573668204  0.8516862525446028  0.4819379389795831   T   T   T
  0.8556787247087669  0.3603727774371563  0.0963292877674888   F   F   F
  0.8602121397915425  0.3602121397915425  0.3542807409773232   F   F   F
  0.3631207847946030  0.8541324340895144  0.0988917278824673   F   F   F
  0.3602121397915425  0.8602133660331077  0.3542807409773232   F   F   F
  0.3602121397915425  0.3602121397915425  0.2240511018843847   F   F   F
  0.3629297687094809  0.3627800189272656  0.4823839006293327   T   T   T
  0.6454825260576342  0.3616873083997518  0.0353302459278169   F   F   F
  0.6397878602084575  0.3602121397915425  0.2968690514212682   F   F   F
  0.6397878602084575  0.8602133660331077  0.1666390929415513   F   F   F
  0.6392317265936868  0.8549404232316822  0.4234078496039728   T   T   T
  0.1308166768853454  0.8481888412017184  0.0384730118173096   F   F   F
  0.1397878602084575  0.8602121397915425  0.2968690514212682   F   F   F
  0.3602121397915425  0.1397878602084575  0.1666390929415513   F   F   F
  0.3608006613823693  0.1411661972037083  0.4265447633955362   T   T   T
  0.8640380134886598  0.1498111587982862  0.0378981156180132   F   F   F
  0.8602121397915425  0.1397890864500297  0.2968693708080465   F   F   F
  0.6429012875536486  0.1404242795830797  0.0979006707122352   F   F   F
  0.6397878602084575  0.1397878602084575  0.3542807409773232   F   F   F
  0.6397878602084575  0.6397878602084575  0.2240511018843847   F   F   F
  0.6360148605450691  0.6354201125260445  0.4848878622098225   T   T   T
  0.1397866339668923  0.3602121397915425  0.1666390929415513   F   F   F
  0.1413558969006432  0.3604948475318734  0.4265523974534613   T   T   T
  0.3563077866339697  0.6332998160637615  0.0355480677099962   F   F   F
  0.3602121397915425  0.6397878602084575  0.2968690514212682   F   F   F
  0.8602133660331077  0.6397878602084575  0.1666390929415513   F   F   F
  0.8551380018752344  0.6390673215070035  0.4233830814980844   T   T   T
  0.1102121397915425  0.6102121397915425  0.2317540721814098   F   F   F
  0.1025626280864970  0.6080475523023559  0.4850284692475043   T   T   T
  0.6106450030656063  0.8886266094420634  0.0272162248482886   F   F   F
  0.6102121397915425  0.8897878602084575  0.2891657617374648   F   F   F
  0.6102121397915425  0.3897866339668923  0.1589358032577479   F   F   F
  0.6098093912839032  0.3894205641364537  0.4191593335511997   T   T   T
  0.8897878602084575  0.1102121397915425  0.1589358032577479   F   F   F
  0.8912050651214870  0.1091598433295629  0.4189722899010443   T   T   T
  0.2460012262415674  0.2470987124463520  0.0623561162567867   F   F   F
  0.2500000000000000  0.2500000000000000  0.3255748961992992   F   F   F
  0.7500000000000000  0.2500000000000000  0.1953449377195753   F   F   F
  0.7555966857537489  0.2459391836611782  0.4561110025977150   T   T   T
  0.2500000000000000  0.7500000000000000  0.1953449377195753   F   F   F
  0.2463349868574119  0.7552336134384326  0.4562373339384623   T   T   T
  0.7517596566523608  0.7514530962599650  0.0618732034493803   F   F   F
  0.7500000000000000  0.7500000000000000  0.3255748961992992   F   F   F
  0.9988129981606377  0.4981299816063753  0.1321069945704281   F   F   F
  0.0029542117656082  0.4973207154988766  0.3902151179247265   T   T   T
  0.0000000000000000  0.0000000000000000  0.2604599169594408   F   F   F
  0.5046646229307186  0.5032936848559189  0.0108361545832025   F   F   F
  0.5000000000000000  0.5000000000000000  0.2604599169594408   F   F   F
  0.5000122311330185  0.4948476147477961  0.5122835783633778   T   T   T
  0.4996934396076043  0.9986069895769489  0.1319191951453220   F   F   F
  0.4974876194014711  0.0026553889533845  0.3902050537619124   T   T   T
  0.6249993868792174  0.6250006131207826  0.1627876077930352   F   F   F
  0.6226654732558131  0.6225352914418035  0.4214857908448413   T   T   T
  0.6365199264255068  0.1027455548743106  0.0359773235388090   F   F   F
  0.6249993868792174  0.1250006131207826  0.2930175662727592   F   F   F
  0.1169576946658495  0.6207296137339071  0.0360159693388695   F   F   F
  0.1250006131207826  0.6249993868792174  0.2930175662727592   F   F   F
  0.1250006131207826  0.1250006131207826  0.1627872884062569   F   F   F
  0.1260757490365093  0.1258061222305198  0.4234316077098618   T   T   T
  0.3691624770079684  0.8913905579399142  0.0352472053656996   F   F   F
  0.3750006131207826  0.8749993868792174  0.2930175662727592   F   F   F
  0.3750006131207826  0.3750006131207826  0.1627876077930352   F   F   F
  0.3753499964247219  0.3753309093968744  0.4219888820617745   T   T   T
  0.8757817290006145  0.1270876762722253  0.0983110827211746   F   F   F
  0.8749993868792174  0.1250006131207826  0.3581325455126176   F   F   F
  0.8749993868792174  0.6249993868792174  0.2279022676461224   F   F   F
  0.8787155042650575  0.6235823947826549  0.4820570677804402   T   T   T
  0.1250006131207826  0.3750006131207826  0.2279022676461224   F   F   F
  0.1220178178121000  0.3766895949357035  0.4888462255715365   T   T   T
  0.6240282035561009  0.3742881667688565  0.0986815713829472   F   F   F
  0.6250006131207826  0.3750006131207826  0.3581325455126176   F   F   F
  0.3753648068669548  0.6231563458001261  0.0990558926860459   F   F   F
  0.3750006131207826  0.6250006131207826  0.3581325455126176   F   F   F
  0.8813353770692842  0.3768816676885365  0.0369124880229990   F   F   F
  0.8749993868792174  0.3750006131207826  0.2930175662727592   F   F   F
  0.8749993868792174  0.8749993868792174  0.1627872884062569   F   F   F
  0.8750187920076369  0.8747681701316692  0.4220960232425116   T   T   T
  0.3750006131207826  0.1250006131207826  0.2279022676461224   F   F   F
  0.3770878644402516  0.1217805599322324  0.4887545990577829   T   T   T
  0.1227602697731456  0.8715843041079125  0.0977326732673234   F   F   F
  0.1250006131207826  0.8749993868792174  0.3581325455126176   F   F   F
  0.6249993868792174  0.8749993868792174  0.2279022676461224   F   F   F
  0.6238757094588522  0.8783302434950548  0.4820833723445052   T   T   T
 
  0.00000000E+00  0.00000000E+00  0.00000000E+00
  0.00000000E+00  0.00000000E+00  0.00000000E+00
  0.00000000E+00  0.00000000E+00  0.00000000E+00
  0.00000000E+00  0.00000000E+00  0.00000000E+00
  0.00000000E+00  0.00000000E+00  0.00000000E+00
  0.00000000E+00  0.00000000E+00  0.00000000E+00
  0.00000000E+00  0.00000000E+00  0.00000000E+00
  0.00000000E+00  0.00000000E+00  0.00000000E+00
  0.00000000E+00  0.00000000E+00  0.00000000E+00
  0.00000000E+00  0.00000000E+00  0.00000000E+00
  0.00000000E+00  0.00000000E+00  0.00000000E+00
  0.00000000E+00  0.00000000E+00  0.00000000E+00
  0.00000000E+00  0.00000000E+00  0.00000000E+00
  0.00000000E+00  0.00000000E+00  0.00000000E+00
  0.00000000E+00  0.00000000E+00  0.00000000E+00
  0.00000000E+00  0.00000000E+00  0.00000000E+00
  0.00000000E+00  0.00000000E+00  0.00000000E+00
  0.00000000E+00  0.00000000E+00  0.00000000E+00
  0.00000000E+00  0.00000000E+00  0.00000000E+00
  0.00000000E+00  0.00000000E+00  0.00000000E+00
  0.00000000E+00  0.00000000E+00  0.00000000E+00
  0.00000000E+00  0.00000000E+00  0.00000000E+00
  0.00000000E+00  0.00000000E+00  0.00000000E+00
  0.00000000E+00  0.00000000E+00  0.00000000E+00
  0.00000000E+00  0.00000000E+00  0.00000000E+00
  0.00000000E+00  0.00000000E+00  0.00000000E+00
  0.00000000E+00  0.00000000E+00  0.00000000E+00
  0.00000000E+00  0.00000000E+00  0.00000000E+00
  0.00000000E+00  0.00000000E+00  0.00000000E+00
  0.00000000E+00  0.00000000E+00  0.00000000E+00
  0.00000000E+00  0.00000000E+00  0.00000000E+00
  0.00000000E+00  0.00000000E+00  0.00000000E+00
  0.00000000E+00  0.00000000E+00  0.00000000E+00
  0.00000000E+00  0.00000000E+00  0.00000000E+00
  0.00000000E+00  0.00000000E+00  0.00000000E+00
  0.00000000E+00  0.00000000E+00  0.00000000E+00
  0.00000000E+00  0.00000000E+00  0.00000000E+00
  0.00000000E+00  0.00000000E+00  0.00000000E+00
  0.00000000E+00  0.00000000E+00  0.00000000E+00
  0.00000000E+00  0.00000000E+00  0.00000000E+00
  0.00000000E+00  0.00000000E+00  0.00000000E+00
  0.00000000E+00  0.00000000E+00  0.00000000E+00
  0.00000000E+00  0.00000000E+00  0.00000000E+00
  0.00000000E+00  0.00000000E+00  0.00000000E+00
  0.00000000E+00  0.00000000E+00  0.00000000E+00
  0.00000000E+00  0.00000000E+00  0.00000000E+00
  0.00000000E+00  0.00000000E+00  0.00000000E+00
  0.00000000E+00  0.00000000E+00  0.00000000E+00
  0.00000000E+00  0.00000000E+00  0.00000000E+00
  0.00000000E+00  0.00000000E+00  0.00000000E+00
  0.00000000E+00  0.00000000E+00  0.00000000E+00
  0.00000000E+00  0.00000000E+00  0.00000000E+00
  0.00000000E+00  0.00000000E+00  0.00000000E+00
  0.00000000E+00  0.00000000E+00  0.00000000E+00
  0.00000000E+00  0.00000000E+00  0.00000000E+00
  0.00000000E+00  0.00000000E+00  0.00000000E+00
  0.00000000E+00  0.00000000E+00  0.00000000E+00
  0.00000000E+00  0.00000000E+00  0.00000000E+00
  0.00000000E+00  0.00000000E+00  0.00000000E+00
  0.00000000E+00  0.00000000E+00  0.00000000E+00
  0.00000000E+00  0.00000000E+00  0.00000000E+00
  0.00000000E+00  0.00000000E+00  0.00000000E+00
  0.00000000E+00  0.00000000E+00  0.00000000E+00
  0.00000000E+00  0.00000000E+00  0.00000000E+00
  0.00000000E+00  0.00000000E+00  0.00000000E+00
  0.00000000E+00  0.00000000E+00  0.00000000E+00
  0.00000000E+00  0.00000000E+00  0.00000000E+00
  0.00000000E+00  0.00000000E+00  0.00000000E+00
  0.00000000E+00  0.00000000E+00  0.00000000E+00
  0.00000000E+00  0.00000000E+00  0.00000000E+00
  0.00000000E+00  0.00000000E+00  0.00000000E+00
  0.00000000E+00  0.00000000E+00  0.00000000E+00
  0.00000000E+00  0.00000000E+00  0.00000000E+00
  0.00000000E+00  0.00000000E+00  0.00000000E+00
  0.00000000E+00  0.00000000E+00  0.00000000E+00
  0.00000000E+00  0.00000000E+00  0.00000000E+00
  0.00000000E+00  0.00000000E+00  0.00000000E+00
  0.00000000E+00  0.00000000E+00  0.00000000E+00
  0.00000000E+00  0.00000000E+00  0.00000000E+00
  0.00000000E+00  0.00000000E+00  0.00000000E+00
  0.00000000E+00  0.00000000E+00  0.00000000E+00
  0.00000000E+00  0.00000000E+00  0.00000000E+00
  0.00000000E+00  0.00000000E+00  0.00000000E+00
  0.00000000E+00  0.00000000E+00  0.00000000E+00
  0.00000000E+00  0.00000000E+00  0.00000000E+00
  0.00000000E+00  0.00000000E+00  0.00000000E+00
  0.00000000E+00  0.00000000E+00  0.00000000E+00
  0.00000000E+00  0.00000000E+00  0.00000000E+00
  0.00000000E+00  0.00000000E+00  0.00000000E+00
  0.00000000E+00  0.00000000E+00  0.00000000E+00
  0.00000000E+00  0.00000000E+00  0.00000000E+00
  0.00000000E+00  0.00000000E+00  0.00000000E+00
  0.00000000E+00  0.00000000E+00  0.00000000E+00
  0.00000000E+00  0.00000000E+00  0.00000000E+00
  0.00000000E+00  0.00000000E+00  0.00000000E+00
  0.00000000E+00  0.00000000E+00  0.00000000E+00
  0.00000000E+00  0.00000000E+00  0.00000000E+00
  0.00000000E+00  0.00000000E+00  0.00000000E+00
  0.00000000E+00  0.00000000E+00  0.00000000E+00
  0.00000000E+00  0.00000000E+00  0.00000000E+00
  0.00000000E+00  0.00000000E+00  0.00000000E+00
  0.00000000E+00  0.00000000E+00  0.00000000E+00
  0.00000000E+00  0.00000000E+00  0.00000000E+00
  0.00000000E+00  0.00000000E+00  0.00000000E+00
  0.00000000E+00  0.00000000E+00  0.00000000E+00
  0.00000000E+00  0.00000000E+00  0.00000000E+00
  0.00000000E+00  0.00000000E+00  0.00000000E+00
  0.00000000E+00  0.00000000E+00  0.00000000E+00
  0.00000000E+00  0.00000000E+00  0.00000000E+00
  0.00000000E+00  0.00000000E+00  0.00000000E+00
  0.00000000E+00  0.00000000E+00  0.00000000E+00
  0.00000000E+00  0.00000000E+00  0.00000000E+00
  0.00000000E+00  0.00000000E+00  0.00000000E+00
  0.00000000E+00  0.00000000E+00  0.00000000E+00
